27      1       
10      
0       0       3       2       3       6       
8       1       3       4       5       8       
3       9       3       7       8       9       
6       10      2       7       10      
7       10      5       10      11      13      14      18      
8       9       1       7       
6       2       5       11      13      14      15      18      
1       10      3       10      11      18      
10      8       3       10      13      18      
2       10      4       15      16      17      20      
7       10      3       12      17      22      
3       7       2       16      20      
4       10      2       16      22      
3       10      2       16      20      
7       10      2       19      22      
1       7       1       19      
9       7       1       19      
6       3       1       19      
7       10      2       21      25      
7       10      2       21      25      
2       4       3       23      24      26      
1       7       3       23      24      25      
9       10      1       27      
8       10      1       27      
9       6       1       27      
1       10      1       27      
0       0       0       
